
Gurobi 9.5.1 (linux64) logging started Fri 10 Jun 2022 12:09:23 PM MST

Set parameter LogFile to value "/home/local/ASUAD/kmajd1/NNRepLayer_v2/demos/walking_example/dynamic_constraint/repair_net/logs/opt_log_6_10_2022_12_8_45.log"
Gurobi Optimizer version 9.5.1 build v9.5.1rc2 (linux64)
Thread count: 48 physical cores, 96 logical processors, using up to 32 threads
Optimize a model with 40962 rows, 25207 columns and 115394 nonzeros
Model fingerprint: 0xfde81950
Model has 151 quadratic objective terms
Variable types: 10807 continuous, 14400 integer (14400 binary)
Coefficient statistics:
  Matrix range     [7e-04, 6e+01]
  Objective range  [2e-02, 3e+00]
  QObjective range [1e-01, 2e+00]
  Bounds range     [2e-01, 6e+01]
  RHS range        [2e-04, 6e+01]
Presolve removed 27126 rows and 12260 columns
Presolve time: 0.30s
Presolved: 13836 rows, 12947 columns, 65434 nonzeros
Presolved model has 151 quadratic objective terms
Variable types: 8987 continuous, 3960 integer (3960 binary)

Root relaxation: objective 7.631240e+01, 23640 iterations, 1.28 seconds (2.58 work units)

    Nodes    |    Current Node    |     Objective Bounds      |     Work
 Expl Unexpl |  Obj  Depth IntInf | Incumbent    BestBd   Gap | It/Node Time

     0     0   76.31240    0 3352          -   76.31240      -     -    2s
     0     0   76.31738    0 3357          -   76.31738      -     -   10s
     0     0   76.31738    0 3377          -   76.31738      -     -   22s
     0     0   76.31738    0 3319          -   76.31738      -     -   23s
     0     0   76.31738    0 3319          -   76.31738      -     -   30s
     0     0   76.31738    0 3279          -   76.31738      -     -   31s
     0     0   76.31738    0 3265          -   76.31738      -     -   31s
     0     0   76.31738    0 3234          -   76.31738      -     -   32s
     0     0   76.31738    0 3239          -   76.31738      -     -   32s
     0     0   76.31738    0 3218          -   76.31738      -     -   33s

Cutting planes:
  Cover: 10
  Implied bound: 191
  Clique: 2
  MIR: 1042
  StrongCG: 6
  Flow cover: 1397
  Relax-and-lift: 108

Explored 1 nodes (44616 simplex iterations) in 63.12 seconds (70.70 work units)
Thread count was 32 (of 96 available processors)

Solution count 0

Solve interrupted
Best objective -, best bound 7.631737985943e+01, gap -
